NAME : g5
COMMENT : J5 Flower
TYPE : HCP
DIMENSION : 20
EDGE_DATA_FORMAT : EDGE_LIST
EDGE_DATA_SECTION
1 2
1 16
1 15
2 3
2 12
3 4
3 8
4 5
4 17
5 6
5 15
6 7
6 11
7 8
7 18
8 9
9 10
9 14
10 11
10 19
11 12
12 13
13 14
13 20
14 15
16 17
16 20
17 18
18 19
19 20
